VER
4

OBJSENSE
MIN

VAR
46 1
F 46

CON
155 3
SVECQRE 91
SVECPSD 45
L= 19

OBJACOORD
1
0 1.0

ACOORD
198
0 0 1.0
1 1 1.0
2 2 1.0
3 3 1.0
4 4 1.0
5 5 1.0
6 6 1.0
7 7 1.0
8 8 1.0
9 9 1.0
10 10 1.0
11 11 1.0
12 12 1.0
13 13 1.0
14 14 1.0
15 15 1.0
16 16 1.0
17 17 1.0
18 18 1.0
19 19 1.0
20 20 1.0
21 21 1.0
22 22 1.0
23 23 1.0
24 24 1.0
25 25 1.0
26 26 1.0
27 27 1.0
28 28 1.0
29 29 1.0
30 30 1.0
31 31 1.0
32 32 1.0
33 33 1.0
34 34 1.0
35 35 1.0
36 36 1.0
37 37 1.0
38 38 1.0
39 39 1.0
40 40 1.0
41 41 1.0
42 42 1.0
43 43 1.0
44 44 1.0
45 45 1.0
46 1 1.0
47 2 1.0
48 3 1.0
49 4 1.0
50 5 1.0
51 6 1.0
55 10 1.0
59 14 1.0
60 15 1.0
64 19 1.0
65 20 1.0
66 21 1.0
73 28 1.0
80 35 1.0
81 36 1.0
88 43 1.0
89 44 1.0
90 45 1.0
91 1 1.0
92 2 1.0
93 3 1.0
94 4 1.0
95 5 1.0
96 6 1.0
97 7 1.0
98 8 1.0
99 9 1.0
100 10 1.0
101 11 1.0
102 12 1.0
103 13 1.0
104 14 1.0
105 15 1.0
106 16 1.0
107 17 1.0
108 18 1.0
109 19 1.0
110 20 1.0
111 21 1.0
112 22 1.0
113 23 1.0
114 24 1.0
115 25 1.0
116 26 1.0
117 27 1.0
118 28 1.0
119 29 1.0
120 30 1.0
121 31 1.0
122 32 1.0
123 33 1.0
124 34 1.0
125 35 1.0
126 36 1.0
127 37 1.0
128 38 1.0
129 39 1.0
130 40 1.0
131 41 1.0
132 42 1.0
133 43 1.0
134 44 1.0
135 45 1.0
136 1 1.0
137 3 1.0
138 6 1.0
139 10 1.0
140 15 1.0
141 21 1.0
142 28 1.0
143 36 1.0
144 1 0.25
144 2 0.3535533905932738
144 3 0.25
144 7 0.3535533905932738
144 8 0.3535533905932738
144 10 0.25
144 11 0.3535533905932738
144 12 0.3535533905932738
144 14 0.3535533905932738
144 15 0.25
145 1 0.25
145 2 -0.3535533905932738
145 3 0.25
145 7 0.3535533905932738
145 8 -0.3535533905932738
145 10 0.25
145 11 -0.3535533905932738
145 12 0.3535533905932738
145 14 -0.3535533905932738
145 15 0.25
146 6 0.5
146 18 0.7071067811865476
146 21 0.5
147 1 0.25
147 2 0.3535533905932738
147 3 0.25
147 7 -0.3535533905932738
147 8 -0.3535533905932738
147 10 0.25
147 11 -0.3535533905932738
147 12 -0.3535533905932738
147 14 0.3535533905932738
147 15 0.25
148 28 0.5
148 35 0.7071067811865476
148 36 0.5
149 3 0.5
149 5 0.7071067811865476
149 6 0.5
150 10 0.5
150 25 0.7071067811865476
150 28 0.5
151 15 0.25
151 20 0.3535533905932738
151 21 0.25
151 33 0.3535533905932738
151 34 0.3535533905932738
151 36 0.25
151 41 0.3535533905932738
151 42 0.3535533905932738
151 44 0.3535533905932738
151 45 0.25
152 15 0.25
152 20 -0.3535533905932738
152 21 0.25
152 33 0.3535533905932738
152 34 -0.3535533905932738
152 36 0.25
152 41 -0.3535533905932738
152 42 0.3535533905932738
152 44 -0.3535533905932738
152 45 0.25
153 15 0.25
153 20 0.3535533905932738
153 21 0.25
153 33 -0.3535533905932738
153 34 -0.3535533905932738
153 36 0.25
153 41 -0.3535533905932738
153 42 -0.3535533905932738
153 44 0.3535533905932738
153 45 0.25
154 1 1.0
154 3 1.0
154 6 1.0
154 10 1.0
154 15 1.0
154 21 1.0
154 28 1.0
154 36 1.0
154 45 1.0

BCOORD
19
136 0.3222222222222222
137 0.00555555555555556
138 0.00555555555555556
139 0.00555555555555556
140 0.3222222222222222
141 0.00555555555555556
142 0.00555555555555556
143 0.00555555555555556
144 0.3222222222222222
145 0.005555555555555536
146 0.00555555555555556
147 0.005555555555555536
148 0.00555555555555556
149 0.00555555555555556
150 0.00555555555555556
151 0.3222222222222222
152 0.005555555555555536
153 0.005555555555555536
154 1.0
